 &CONTROL
       calculation = 'nscf',
      restart_mode = 'from_scratch',
        pseudo_dir = './',
            outdir = './tmp/',
            prefix = 'gr',
 /
 &SYSTEM
             ibrav = 4,
                 a = 2.4623,
                 c = 10
               nat = 2,
              ntyp = 1,
       occupations = 'tetrahedra',
           ecutwfc = 60,
           ecutrho = 720,
 /
 &ELECTRONS
          conv_thr = 1.0d-8,
       mixing_beta = 0.7,
 /
ATOMIC_SPECIES
C 12.0107 C.pbe-rrkjus.UPF
ATOMIC_POSITIONS (crystal)
C  0.333333333  0.666666666  0.500000000
C  0.666666666  0.333333333  0.500000000
K_POINTS (automatic)
48 48 1 0 0 0
